solution status: optimal solution found
objective value:                                    0
$_25__7_y                                          19 	(obj:0)
$_25__7_z                                          24 	(obj:0)
$_22__7_y                                          23 	(obj:0)
$_22__7_z                                          23 	(obj:0)
one.thingy.devices[0].thingy.column_lower_y                   18 	(obj:0)
one.thingy.devices[0].thingy.column_lower_z                   24 	(obj:0)
$_19__7_y                                         -10 	(obj:0)
$_19__7_z                                          24 	(obj:0)
one.ctrl_s[3].hole_y                               21 	(obj:0)
one.ctrl_s[3].hole_z                               24 	(obj:0)
one.thingy.devices[1].thingy.column_lower_y                   24 	(obj:0)
one.thingy.devices[1].thingy.column_lower_z                   20 	(obj:0)
$_20__7_y                                         -12 	(obj:0)
$_20__7_z                                          24 	(obj:0)
$_24__7_y                                          20 	(obj:0)
$_24__7_z                                          23 	(obj:0)
$_23__7_y                                          24 	(obj:0)
$_23__7_z                                          23 	(obj:0)
one.thingy.devices[3].thingy.column_lower_y                   23 	(obj:0)
one.thingy.devices[3].thingy.column_lower_z                   24 	(obj:0)
one.ctrl_s[3].flush_y                              23 	(obj:0)
one.ctrl_s[3].flush_z                              20 	(obj:0)
$_18__7_y                                         -13 	(obj:0)
$_18__7_z                                          24 	(obj:0)
one.thingy.devices[2].thingy.column_lower_y                   21 	(obj:0)
one.thingy.devices[2].thingy.column_lower_z                   23 	(obj:0)
$_21__7_y                                         -11 	(obj:0)
$_21__7_z                                          24 	(obj:0)
